NAME : XML100_3164_12
DIMENSION : 101
NB_CLUSTERS : 26
CLUSTERING_ALG : DBSCAN
CLUSTERING_PARAMS : eps(55), minSamples(3)
CLUSTERS
1 0
2 5 43 89
3 4 10 13 21 38 54 77 90 96 98
4 12 16 32 37 40 66
5 2 20 22 39 55 61 72
6 3 23 42 46
7 30 35 36 65 80 88
8 1 26 49 82
9 27 28 58 59 83
10 25 41 44 60 79 84 87 92 100
11 8 14 34
12 6 47 62
13 64 67 70 71 86
14 31 33 68
15 50 53 73 94
16 63 85
17 7 19 48
18 11 76 93
19 74 78 97
20 15 17 18
21 57 91 99
22 52 69
23 29 75
24 9 24 81
25 45 56
26 51 95
EOF